This is Ipopt version 3.10.0, running with linear solver ma27.

Number of nonzeros in equality constraint Jacobian...:        0
Number of nonzeros in inequality constraint Jacobian.:       16
Number of nonzeros in Lagrangian Hessian.............:        0

Total number of variables............................:       16
                     variables with only lower bounds:        0
                variables with lower and upper bounds:       16
                     variables with only upper bounds:        0
Total number of equality constraints.................:        0
Total number of inequality constraints...............:        1
        inequality constraints with only lower bounds:        0
   inequality constraints with lower and upper bounds:        0
        inequality constraints with only upper bounds:        1

iter    objective    inf_pr   inf_du lg(mu)  ||d||  lg(rg) alpha_du alpha_pr  ls
   0  9.3346407e-04 4.14e-01 9.96e-01   0.0 0.00e+00    -  0.00e+00 0.00e+00   0
   1  1.5517800e-02 0.00e+00 1.10e+00  -1.6 2.69e-02    -  9.57e-01 1.00e+00h  1
   2  9.8020253e-03 0.00e+00 1.57e-01  -2.5 8.97e-03    -  1.00e+00 1.00e+00h  1
   3  3.8694792e-03 0.00e+00 3.23e-01  -3.0 3.07e-02    -  9.99e-01 1.00e+00h  1
   4  3.0115750e-03 0.00e+00 2.80e-02  -3.8 1.90e-02    -  1.00e+00 1.00e+00h  1
   5  2.7813333e-03 0.00e+00 6.67e-02  -4.4 1.40e-02    -  1.00e+00 1.00e+00h  1
   6  2.8896982e-03 0.00e+00 6.06e-02  -4.7 1.06e-02    -  1.00e+00 9.69e-01H  1
   7  2.8449191e-03 0.00e+00 3.91e-02  -4.9 6.21e-03    -  1.00e+00 6.26e-01h  1
   8  2.7592581e-03 2.56e-04 1.58e-02  -5.1 1.24e-02    -  1.00e+00 3.33e-01h  1
   9  2.6880788e-03 0.00e+00 6.39e-02  -4.1 1.86e-02    -  1.00e+00 9.53e-01h  1
iter    objective    inf_pr   inf_du lg(mu)  ||d||  lg(rg) alpha_du alpha_pr  ls
  10  2.6726125e-03 0.00e+00 1.52e-02  -4.9 3.08e-03    -  1.00e+00 1.00e+00h  1
  11  2.5693816e-03 0.00e+00 4.27e-03  -5.1 7.16e-03    -  1.00e+00 9.96e-01h  1
  12  2.6156351e-03 0.00e+00 4.12e-02  -5.7 9.19e-03    -  1.00e+00 1.00e+00H  1
  13  2.6089616e-03 0.00e+00 2.08e-02  -5.4 2.87e-02    -  1.00e+00 1.07e-02h  5
  14  2.6881061e-03 0.00e+00 3.08e-02  -6.0 1.26e-04    -  1.00e+00 1.00e+00h  1
  15  2.6184201e-03 0.00e+00 7.76e-03  -6.0 9.83e-05    -  1.00e+00 1.00e+00h  1

Number of Iterations....: 15

                                   (scaled)                 (unscaled)
Objective...............:   2.6184200965463501e-03    2.6184200965463501e-03
Dual infeasibility......:   7.7580044621777177e-03    7.7580044621777177e-03
Constraint violation....:   0.0000000000000000e+00    0.0000000000000000e+00
Complementarity.........:   9.5047589851637645e-07    9.5047589851637645e-07
Overall NLP error.......:   7.7580044621777177e-03    7.7580044621777177e-03


Number of objective function evaluations             = 26
Number of objective gradient evaluations             = 16
Number of equality constraint evaluations            = 0
Number of inequality constraint evaluations          = 26
Number of equality constraint Jacobian evaluations   = 0
Number of inequality constraint Jacobian evaluations = 16
Number of Lagrangian Hessian evaluations             = 0
Total CPU secs in IPOPT (w/o function evaluations)   =      0.111
Total CPU secs in NLP function evaluations           = 465124.818

EXIT: Stopping optimization at current point as requested by user.
